c 174_4_checker_5cl.cnf
c
c field = 174
c formula set type = 4_checker_5cl
c
p cnf 5 6
316 
376 
406 
436 
-286 
317 
377 
407 
437 
-287 
314 
378 
410 
442 
-282 
315 
379 
411 
443 
-283 
318 
374 
402 
430 
-290 
319 
375 
403 
431 
-291 
